CMD:
./solvers/bin/cadical --plain --no-reduce -t 1600 ./data/cnfs//picorv32_mutAY_nomem-p6/picorv32_mutAY_nomem-p6.69.cnf

c --- [ banner ] -------------------------------------------------------------
c 
c CaDiCaL SAT Solver
c Copyright (c) 2016-2024
c A. Biere, M. Fleury, N. Froleyks, K. Fazekas, F. Pollitt, T. Faller
c JKU Linz, University of Freiburg, TU Wien
c 
c Version 2.1.3 5296d3d2a9bf48c154ab2acb5e44625776d821bf
c g++ (Gentoo 12.3.1_p20230526 p2) 12.3.1 20230526 -Wall -Wextra -O3 -DNDEBUG
c Sat Aug 9 07:26:21 PDT 2025 Linux cedar2.int.cedar.computecanada.ca 5.14.0-362.24.2.el9_3.x86_64 x86_64
c 
c --- [ limit ] --------------------------------------------------------------
c 
c setting time limit to 1600 seconds real time (due to '-t 1600')
c 
c --- [ parsing input ] ------------------------------------------------------
c 
c reading DIMACS file from './data/cnfs//picorv32_mutAY_nomem-p6/picorv32_mutAY_nomem-p6.69.cnf'
c opening file to read './data/cnfs//picorv32_mutAY_nomem-p6/picorv32_mutAY_nomem-p6.69.cnf'
c found 'p cnf 3414898 10065109' header
c parsed 10065109 clauses in 1.98 seconds process time
c 
c --- [ options ] ------------------------------------------------------------
c 
c   --compact=false                (different from default 'true')
c   --decompose=false              (different from default 'true')
c   --deduplicate=false            (different from default 'true')
c   --elim=false                   (different from default 'true')
c   --probe=false                  (different from default 'true')
c   --reduce=false                 (different from default 'true')
c   --subsume=false                (different from default 'true')
c   --ternary=false                (different from default 'true')
c   --transred=false               (different from default 'true')
c   --vivify=false                 (different from default 'true')
c 
c --- [ solving ] ------------------------------------------------------------
c 
c time measured in process time since initialization
c 
c  seconds    reductions  redundant   irredundant
c          MB     restarts       trail         variables
c            level   conflicts       glue            remaining
c 
c *  1.98 1537  0 0   0    0    0  0% 0 9810564 3245548 95%
c {  2.40 1569  0 0   0    0    0  0% 0 9810564 3245548 95%
c i  2.66 1574 216 0   8   76   60  7% 4 9810564 3245547 95%
c i  2.66 1574 213 0   8   78   60  7% 4 9810564 3245539 95%
c i  2.69 1574 120 0   8  142  111  6% 4 9810564 3232435 95%
c i  2.69 1574 119 0   8  143  111  6% 4 9810564 3232431 95%
c i  2.94 1577 81 0  12  338  279 10% 3 9810564 3232430 95%
c i  3.07 1578 83 0  15  422  356 10% 3 9810564 3232429 95%
c i  3.25 1579 71 0  22  649  556 10% 3 9810564 3232428 95%
c i  3.29 1579 64 0  23  847  741  9% 3 9810564 3219886 94%
c i  3.31 1579 60 0  25  939  820  9% 3 9810564 3219290 94%
c i  3.31 1579 60 0  25  940  820  9% 3 9810564 3219289 94%
c i  3.34 1579 58 0  28  996  872  9% 3 9810564 3219287 94%
c }  3.36 1579 58 0  28 1001  875  9% 3 9810564 3219287 94%
c [  3.37 1579  0 0  28 1001  875  0% 0 9810564 3219287 94%
c O  3.47 1579 3932 0  28 1002  876 11% 2 9810564 3219287 94%
c i  4.23 1580 38917 0  28 1004  877 70% 1 9810564 3219277 94%
c i  8.54 1582 46238 0  29 2415 2137 88% 7 9810564 3219132 94%
c i  8.62 1582 46085 0  29 2440 2158 88% 7 9810564 3219131 94%
c i  9.39 1582 44637 0  29 2627 2313 86% 8 9810564 3219130 94%
c 
c  seconds       reductions  redundant   irredundant
c          MB        restarts       trail         variables
c              level    conflicts       glue            remaining
c 
c i  9.70 1582 44296 0  29 2658 2339 86% 9 9810564 3219129 94%
c ] 12.42 1583 38188 0  29 3002 2621 77% 12 9810564 3219129 94%
c { 12.42 1583 58 0  29 3002 2621  9% 3 9810564 3219129 94%
c F 12.43 1583 58 0  29 3003 2622  9% 3 9810564 3219129 94%
c i 12.52 1583 57 0  36 3120 2732  9% 3 9810564 3219128 94%
c i 12.55 1584 56 0  36 3181 2786  8% 3 9810564 3219127 94%
c i 12.59 1584 53 0  36 3265 2859  8% 3 9810564 3219125 94%
c i 12.59 1584 53 0  36 3292 2883  8% 3 9810564 3219067 94%
c i 12.67 1584 54 0  41 3421 2972  8% 3 9810564 3219048 94%
c i 12.69 1584 54 0  41 3427 2977  8% 3 9810564 3219041 94%
c i 12.69 1584 54 0  41 3428 2977  8% 3 9810564 3219033 94%
c i 12.90 1585 52 0  54 3591 3125  8% 3 9810564 3218942 94%
c i 13.09 1586 62 0  54 3659 3190 10% 3 9810564 3218941 94%
c i 13.82 1587 64 0 131 4304 3775 10% 3 9810564 3218940 94%
c i 14.01 1587 64 0 142 4351 3818 10% 3 9810564 3218786 94%
c i 14.01 1587 64 0 142 4352 3818 10% 3 9810564 3218761 94%
c i 14.01 1587 64 0 143 4357 3821 10% 3 9810564 3218607 94%
c i 14.08 1587 64 0 147 4485 3936 10% 3 9810564 3218606 94%
c i 14.08 1587 63 0 147 4496 3946 10% 3 9810564 3218605 94%
c i 14.67 1588 62 0 201 5149 4544 10% 3 9810564 3218444 94%
c 
c  seconds    reductions  redundant   irredundant
c          MB     restarts       trail         variables
c            level   conflicts       glue            remaining
c 
c i 14.73 1589 63 0 201 5170 4564 10% 3 9810564 3218443 94%
c i 14.73 1589 63 0 201 5174 4567 10% 3 9810564 3218442 94%
c i 14.88 1589 65 0 205 5224 4610 10% 3 9810564 3218441 94%
c i 14.97 1589 71 0 208 5353 4729 10% 3 9810564 3218440 94%
... skipped 685 lines ...
c i 1252.53 2057 99 0 23173 334834 300995 14% 6 9250890 3169272 93%
c i 1252.53 2057 99 0 23175 334845 301004 14% 6 9250890 3167648 93%
c i 1252.53 2057 99 0 23175 334846 301004 14% 6 9250890 3167647 93%
c i 1252.53 2057 99 0 23176 334849 301006 14% 6 9250890 3167263 93%
c i 1252.54 2057 99 0 23178 334855 301011 14% 6 9250890 3167262 93%
c i 1252.54 2057 99 0 23178 334860 301014 14% 6 9250890 3166984 93%
c 
c   seconds     reductions       redundant    irredundant
c            MB      restarts            trail         variables
c              level      conflicts          glue            remaining
c 
c i 1254.24 2057 99 0 23231 335126 301266 14% 6 9250890 3166983 93%
c i 1257.52 2057 99 0 23354 335792 301872 14% 6 9250890 3166982 93%
c i 1261.56 2057 99 0 23447 336898 302858 14% 6 9250890 3166969 93%
c i 1261.88 2057 99 0 23447 336924 302883 14% 6 9250890 3166940 93%
c i 1261.90 2057 99 0 23447 336932 302888 14% 6 9250890 3166882 93%
c i 1264.70 2057 99 0 23505 337551 303471 14% 6 9250890 3166881 93%
c i 1275.40 2057 99 0 23767 339500 305188 14% 6 9250890 3162298 93%
c i 1287.62 2057 101 0 24129 342297 307764 14% 6 9250890 3162297 93%
c i 1297.82 2057 101 0 24502 344559 309861 14% 6 9250890 3162274 93%
c i 1298.01 2057 101 0 24502 344645 309944 14% 6 9250890 3162273 93%
c i 1313.15 2057 103 0 24833 346441 311604 14% 6 9250890 3162247 93%
c i 1335.44 2057 104 0 25372 349493 314368 14% 6 9250890 3162246 93%
c i 1339.35 2057 104 0 25483 350385 315196 15% 6 9250890 3162245 93%
c # 1341.64 2057 104 0 25542 351065 315809 15% 6 9250890 3162245 93%
c i 1342.48 2057 103 0 25567 351838 316503 14% 6 9250890 3162244 93%
c i 1349.72 2057 103 0 25802 353291 317860 14% 6 9250890 3162223 93%
c i 1351.48 2057 103 0 25861 353546 318096 14% 6 9250890 3162222 93%
c i 1355.33 2057 104 0 25940 354623 319073 15% 6 9250890 3162221 93%
c i 1357.99 2057 104 0 26035 355535 319893 15% 6 9250890 3162220 93%
c i 1360.75 2057 104 0 26129 355929 320270 15% 6 9250890 3162219 93%
c 
c   seconds      reductions       redundant    irredundant
c            MB       restarts            trail         variables
c               level      conflicts          glue            remaining
c 
c i 1375.84 2057 105 0 26589 358966 323068 15% 6 9250890 3162217 93%
c i 1404.91 2057 110 0 27557 366063 329577 15% 7 9250890 3162216 93%
c B 1459.69 2057 117 0 29027 378066 340557 15% 7 9250890 3162216 93%
c i 1475.76 2057 119 0 29366 381710 343901 15% 7 9250890 3162215 93%
c i 1496.34 2057 119 0 29964 386999 348705 15% 7 9250890 3162214 93%
c i 1498.37 2057 119 0 29994 387600 349261 15% 7 9250890 3162213 93%
c i 1514.33 2057 121 0 30320 390769 352150 15% 7 9250890 3162212 93%
c i 1516.81 2057 121 0 30393 392964 354182 15% 7 9250890 3162211 93%
c } 1535.98 2057 124 0 30870 396759 357569 15% 7 9250890 3162211 93%
c ? 1535.98 2057 124 0 30870 396759 357569 15% 7 9250890 3162211 93%
c 
c --- [ result ] -------------------------------------------------------------
c 
c UNKNOWN
c 
c --- [ run-time profiling ] -------------------------------------------------
c 
c process time taken by individual solving procedures
c (percentage relative to process time for solving)
c 
c      1534.00  100.00% search
c       887.17   57.83% unstable
c       630.84   41.12% stable
c        15.56    1.01% walk
c         1.98    0.13% parse
c         0.42    0.03% lucky
c         0.00    0.00% simplify
c   =================================
c      1534.00   99.87% solve
c 
c last line shows process time for solving
c (percentage relative to total process time)
c 
c --- [ statistics ] ---------------------------------------------------------
c 
c chronological:            174052        43.87 %  of conflicts
c conflicts:                396759       258.64    per second
c decisions:               5199243      3389.34    per second
c fixed:                    252654         7.40 %  of all variables
c learned:                  372103        93.79 %  per conflict
c learned_lits:           60511546       100.00 %  learned literals
c minimized:                     0         0.00 %  learned literals
c shrunken:                6529291        10.79 %  learned literals
c minishrunken:           11365818        18.78 %  learned literals
c otfs:                       1993         0.50 %  of conflict
c propagations:        16381066922        10.68 M  per second
c rephased:                     27     14694.78    interval
c restarts:                  30870        12.85    interval
c stabilizing:                   4        42.85 %  of conflicts
c subsumed:                  11812         0.12 %  of all clauses
c strengthened:               1976         0.02 %  of all clauses
c walked:                        7     56679.86    interval
c 
c seconds are measured in process time for solving
c 
c --- [ resources ] ----------------------------------------------------------
c 
c total process time since initialization:      1535.98    seconds
c total real time since initialization:         1600.01    seconds
c maximum resident set size of process:         2479.86    MB
c 
c --- [ shutting down ] ------------------------------------------------------
c 
c exit 0
